log             log.MOF_net-uod_node1-N18_edge1-E7 append
units           real
atom_style      full
boundary        p p p

pair_style      lj/cut 12.500
bond_style      harmonic
angle_style     hybrid cosine/periodic fourier
dihedral_style  harmonic
improper_style  fourier

dielectric      1.0
special_bonds   lj/coul 0.0 0.0 1.0
pair_modify     tail yes mix arithmetic
box tilt        large
read_data       data.MOF_net-uod_node1-N18_edge1-E7

#### Atom Groupings ####
group           fram     id   1:2496
#### END Atom Groupings ####

